4 11 50 1 2
0 200
 1 40.00 50.00 0.00 0.00 0.00 0 0 0 240
 2 25.00 85.00 10.00 20.00 20.00 1 1 1 125 191
 3 22.00 75.00 10.00 30.00 20.00 1 1 1 32 97
 4 22.00 85.00 10.00 10.00 30.00 1 1 1 101 146
 5 20.00 80.00 10.00 40.00 10.00 1 1 1 71 193
 6 20.00 85.00 10.00 20.00 20.00 1 1 1 40 113
 7 18.00 75.00 10.00 20.00 30.00 1 1 1 55 164
 8 15.00 75.00 10.00 20.00 30.00 1 1 1 69 118
 9 15.00 80.00 10.00 10.00 30.00 1 1 1 56 155
 10 10.00 35.00 10.00 20.00 10.00 1 1 1 51 160
 11 10.00 40.00 10.00 30.00 20.00 1 1 1 90 177
 12 8.00 40.00 10.00 40.00 40.00 1 1 1 33 152
 13 8.00 45.00 10.00 20.00 10.00 1 1 1 49 108
 14 5.00 35.00 10.00 10.00 40.00 1 1 1 62 191
 15 5.00 45.00 10.00 10.00 20.00 1 1 1 35 117
 16 2.00 40.00 10.00 20.00 30.00 1 1 1 39 161
 17 0.00 40.00 10.00 20.00 40.00 1 1 1 59 114
 18 0.00 45.00 10.00 20.00 10.00 1 1 1 60 189
 19 44.00 5.00 10.00 20.00 20.00 1 1 1 79 124
 20 42.00 10.00 10.00 40.00 10.00 1 1 1 58 115
 21 42.00 15.00 10.00 10.00 20.00 1 1 1 111 162
 22 40.00 5.00 10.00 10.00 20.00 1 1 1 52 111
 23 40.00 15.00 10.00 40.00 20.00 1 1 1 55 158
 24 38.00 5.00 10.00 30.00 40.00 1 1 1 45 164
 25 38.00 15.00 10.00 10.00 30.00 1 1 1 128 194
 26 35.00 5.00 10.00 20.00 10.00 1 1 1 54 184
 27 95.00 30.00 10.00 30.00 10.00 1 1 1 105 154
 28 95.00 35.00 10.00 20.00 20.00 1 1 1 57 172
 29 92.00 30.00 10.00 10.00 10.00 1 1 1 55 120
 30 90.00 35.00 10.00 10.00 20.00 1 1 1 52 112
 31 88.00 30.00 10.00 10.00 10.00 1 1 1 52 159
 32 88.00 35.00 10.00 20.00 10.00 1 1 1 50 110
 33 87.00 30.00 10.00 10.00 10.00 1 1 1 116 175
 34 85.00 25.00 10.00 10.00 10.00 1 1 1 51 178
 35 85.00 35.00 10.00 30.00 20.00 1 1 1 100 151
 36 67.00 85.00 10.00 20.00 20.00 1 1 1 61 185
 37 65.00 85.00 10.00 40.00 10.00 1 1 1 43 186
 38 65.00 82.00 10.00 10.00 10.00 1 1 1 113 164
 39 62.00 80.00 10.00 30.00 30.00 1 1 1 37 148
 40 60.00 80.00 10.00 10.00 10.00 1 1 1 36 191
 41 60.00 85.00 10.00 30.00 40.00 1 1 1 50 149
 42 58.00 75.00 10.00 20.00 20.00 1 1 1 48 165
 43 55.00 80.00 10.00 10.00 10.00 1 1 1 33 166
 44 55.00 85.00 10.00 20.00 10.00 1 1 1 117 168
 45 55.00 82.00 10.00 10.00 10.00 1 1 1 35 148
 46 20.00 82.00 10.00 10.00 20.00 1 1 1 37 177
 47 18.00 80.00 10.00 10.00 30.00 1 1 1 98 157
 48 2.00 45.00 10.00 10.00 20.00 1 1 1 38 109
 49 42.00 5.00 10.00 10.00 10.00 1 1 1 120 184
 50 42.00 12.00 10.00 10.00 10.00 1 1 1 79 158
 51 72.00 35.00 10.00 30.00 10.00 1 1 1 104 157
